NAME : berlin52.tsp
TYPE : TOUR
DIMENSION : 52
TOUR_LENGTH : 8212.373918892703
TOUR_SECTION
1
22
49
32
36
35
34
39
40
38
24
48
5
15
6
4
25
12
28
27
26
47
13
14
52
11
51
33
43
10
9
8
41
19
45
37
44
16
50
20
23
31
18
3
17
21
42
7
2
30
29
46
-1
